6 40 4 10
20 6 19 11 18 3 7 16 2 20 10 14 13 10 10 15 15 3 15 16 17 1 5 8 19 7 1 15 4 4 4 2 6 19 9 7 19 17 2 17 
2.64 6.88 5.07 4.15 4.64 3.68 5.8 0.29 1.41 3.44 0.4 3.25 0.94 3.24 5.49 5.22 2.16 2.45 4.62 0.63 0.69 7.63 6.52 1.67 3.1 1.64 7.25 6.65 3.85 0.15 6.15 7.37 4.27 5.14 6.87 7.03 1.94 4.52 7.27 1.23 
0.35 6.06 2.59 3.94 5.87 2.46 2.93 5.11 3.79 3.48 4.72 3.4 2.61 2.12 5.14 2.66 3.92 0.49 2.03 2.93 4.04 7.46 6.12 1.76 1.09 5.23 5.4 2.42 4.39 3.74 3.51 0.29 7.01 4.67 6.97 6.93 0.46 4.52 6.88 7.55 
1.07 5.02 6.95 0.91 7.19 0.67 2.79 2.25 1.12 1.36 6.57 0.49 1.96 1.18 0.24 7.53 0.78 5.32 3.43 5.01 2.23 0.73 6.4 2.71 7.33 4.52 4.45 5.51 6.57 6.87 2.01 6.33 1.87 7.13 5.25 5.04 2.09 6.97 1.41 3.15 
2.24 5.19 6.15 6.55 0.36 7.16 0.21 7.09 2.37 0.02 4.2 2.1 5.9 1.91 2.55 6.69 0.94 0.97 7.76 4.7 6.85 3.02 7.73 1.59 6.76 3.43 5.09 5.7 4.48 5.22 0.4 6.93 3.17 1.59 2.31 3.31 4.76 7.06 3.71 6.08 
4 4 4 4 4 4 4 4 4 4 4 4 4 4 4 4 4 4 4 4 4 4 4 4 4 4 4 4 4 4 4 4 4 4 4 4 4 4 4 4 
0.37 1.86 1.4 0.74 6.22 1.76 0.83 7.65 1.1 2.27 3.62 4.65 0.12 4.91 3.9 4.71 7.76 4.41 1.31 6.67 0.07 0.55 2.59 4.36 0.56 1.37 3.52 5.28 6.8 4.87 7.12 3.9 5.23 5.22 0.37 4.12 5.13 1.66 4.67 3.44 
1 1 1 1 1 1 1 1 1 1 1 1 1 1 1 1 1 1 1 1 1 1 1 1 1 1 1 1 1 1 1 1 1 1 1 1 1 1 1 1 
1 1 1 1 1 1 1 1 1 1 1 1 1 1 1 1 1 1 1 1 1 1 1 1 1 1 1 1 1 1 1 1 1 1 1 1 1 1 1 1 
1 1 1 1 1 1 1 1 1 1 1 1 1 1 1 1 1 1 1 1 1 1 1 1 1 1 1 1 1 1 1 1 1 1 1 1 1 1 1 1 
1 1 1 1 1 1 1 1 1 1 1 1 1 1 1 1 1 1 1 1 1 1 1 1 1 1 1 1 1 1 1 1 1 1 1 1 1 1 1 1 
1 1 1 1 1 1 1 1 1 1 1 1 1 1 1 1 1 1 1 1 1 1 1 1 1 1 1 1 1 1 1 1 1 1 1 1 1 1 1 1 
1 1 1 1 1 1 1 1 1 1 1 1 1 1 1 1 1 1 1 1 1 1 1 1 1 1 1 1 1 1 1 1 1 1 1 1 1 1 1 1 
0.01 0.01 0.01 0.01 0.01 0.01 0.01 0.01 0.01 0.01 0.01 0.01 0.01 0.01 0.01 0.01 0.01 0.01 0.01 0.01 0.01 0.01 0.01 0.01 0.01 0.01 0.01 0.01 0.01 0.01 0.01 0.01 0.01 0.01 0.01 0.01 0.01 0.01 0.01 0.01 
0.02 0.02 0.02 0.02 0.02 0.02 0.02 0.02 0.02 0.02 0.02 0.02 0.02 0.02 0.02 0.02 0.02 0.02 0.02 0.02 0.02 0.02 0.02 0.02 0.02 0.02 0.02 0.02 0.02 0.02 0.02 0.02 0.02 0.02 0.02 0.02 0.02 0.02 0.02 0.02 
0.03 0.03 0.03 0.03 0.03 0.03 0.03 0.03 0.03 0.03 0.03 0.03 0.03 0.03 0.03 0.03 0.03 0.03 0.03 0.03 0.03 0.03 0.03 0.03 0.03 0.03 0.03 0.03 0.03 0.03 0.03 0.03 0.03 0.03 0.03 0.03 0.03 0.03 0.03 0.03 
0.04 0.04 0.04 0.04 0.04 0.04 0.04 0.04 0.04 0.04 0.04 0.04 0.04 0.04 0.04 0.04 0.04 0.04 0.04 0.04 0.04 0.04 0.04 0.04 0.04 0.04 0.04 0.04 0.04 0.04 0.04 0.04 0.04 0.04 0.04 0.04 0.04 0.04 0.04 0.04 
0.05 0.05 0.05 0.05 0.05 0.05 0.05 0.05 0.05 0.05 0.05 0.05 0.05 0.05 0.05 0.05 0.05 0.05 0.05 0.05 0.05 0.05 0.05 0.05 0.05 0.05 0.05 0.05 0.05 0.05 0.05 0.05 0.05 0.05 0.05 0.05 0.05 0.05 0.05 0.05 
1 1 1 1 1 1 1 1 1 1 1 1 1 1 1 1 1 1 1 1 1 1 1 1 1 1 1 1 1 1 1 1 1 1 1 1 1 1 1 1 
